# Solution for model GasLib-40
# Objective value = 1.0537478352955208e+01
loadshed[innode_1] 0
loadshed[innode_2] 0
loadshed[innode_3] 0
loadshed[innode_4] 0
loadshed[innode_5] 0
loadshed[innode_6] 0
loadshed[innode_7] 0
loadshed[innode_8] 0
loadshed[source_1] -2.1706175698741892e-01
loadshed[source_2] -4.6564839484498854e-02
loadshed[source_3] 3.3028141232189712e-01
loadshed[sink_1] 0
loadshed[sink_2] 0
loadshed[sink_3] 0
loadshed[sink_4] 0
loadshed[sink_5] 0
loadshed[sink_6] 0
loadshed[sink_7] 0
loadshed[sink_8] 0
loadshed[sink_9] 0
loadshed[sink_10] 0
loadshed[sink_11] 0
loadshed[sink_12] 6.4432988655012735e-01
loadshed[sink_13] 0
loadshed[sink_14] 0
loadshed[sink_15] 0
loadshed[sink_16] 0
loadshed[sink_17] 0
loadshed[sink_18] 0
loadshed[sink_19] 0
loadshed[sink_20] 0
loadshed[sink_21] 0
loadshed[sink_22] 0
loadshed[sink_23] 0
loadshed[sink_24] 0
loadshed[sink_25] 0
loadshed[sink_26] 0
loadshed[sink_27] 0
loadshed[sink_28] 0
loadshed[sink_29] 0
flow[source_1,sink_3] 1.9240563123485134e+02
flow[innode_1,sink_16] 1.6354166666666970e+01
flow[innode_6,sink_13] 8.6031691076942138e+00
flow[sink_13,sink_14] -7.7509975589724540e+00
flow[sink_14,sink_10] -24.1051642256391
flow[sink_25,sink_26] 1.6903347293159459e+02
flow[sink_26,sink_9] 1.2790477078497653e+02
flow[sink_9,sink_18] 1.1155060411830986e+02
flow[sink_26,sink_4] 2.4774535479951282e+01
flow[sink_4,sink_20] 8.4203688132846537e+00
flow[sink_18,sink_6] 9.5196437451643192e+01
flow[sink_25,innode_8] -1.5969729790151496e+02
flow[sink_6,sink_7] 4.6133937451643305e+01
flow[sink_6,sink_22] 3.2708333333333641e+01
flow[sink_7,sink_24] 3.8525021647044795e+01
flow[sink_22,sink_1] 1.6354166666666970e+01
flow[sink_24,sink_21] 2.2170854980378127e+01
flow[sink_21,sink_12] 5.81668831371146
flow[sink_7,sink_5] -8.7452508620684171e+00
flow[sink_5,sink_17] -2.5099417528734989e+01
flow[sink_17,sink_4] 0
flow[sink_17,sink_8] -41.4535841954018
flow[sink_3,sink_23] 16.3541666666697
flow[sink_8,sink_20] -5.7807750862068474e+01
flow[sink_25,sink_20] 6.5741548715450392e+01
flow[sink_25,sink_15] -1.0003505951989195e+02
flow[sink_15,sink_29] -6.4645773103217209e+01
flow[sink_29,sink_28] 1.6354166666667879e+01
flow[sink_29,sink_2] 68.0976197500081
flow[sink_2,sink_15] 5.1743453083341365e+01
flow[sink_29,innode_7] -1.6545172618655982e+02
flow[innode_4,sink_19] 4.0489117100827116e+01
flow[sink_19,innode_3] 7.3167664225639669e+01
flow[innode_4,innode_5] 6.5386880458145242e+01
flow[sink_27,innode_5] -6.5386880458145242e+01
flow[sink_27,sink_19] 4.9032713791478614e+01
flow[sink_10,sink_11] 3.2708333333333641e+01
flow[sink_10,innode_2] 0
flow[sink_10,innode_3] -7.3167664225639669e+01
flow[innode_6,sink_25] -8.6031691076942138e+00
flow[sink_11,innode_1] 1.6354166666666970e+01
flow[sink_19,innode_2] 0
flow[source_3,innode_4] 1.0587599755897230e+02
flow[source_2,innode_7] 1.6545172618655982e+02
flow[sink_3,innode_8] 1.5969729790151496e+02
pressure[innode_1] 7.5163758784450280e+01
pressure[innode_2] 7.5315460092053826e+01
pressure[innode_3] 7.9210911192298610e+01
pressure[innode_4] 81.01325
pressure[innode_5] 80.96827345576
pressure[innode_6] 7.4208876434547832e+01
pressure[innode_7] 81.01325
pressure[innode_8] 8.0370111476397156e+01
pressure[source_1] 81.01325
pressure[source_2] 81.01325
pressure[source_3] 81.01325
pressure[sink_1] 4.5969178296852796e+01
pressure[sink_2] 7.4863074919809250e+01
pressure[sink_3] 8.0370111476397156e+01
pressure[sink_4] 5.9154049643548063e+01
pressure[sink_5] 5.1074028358263888e+01
pressure[sink_6] 4.8070255907240167e+01
pressure[sink_7] 4.7436946912692392e+01
pressure[sink_8] 5.4507904965809871e+01
pressure[sink_9] 5.4648517559222228e+01
pressure[sink_10] 7.5315460092053826e+01
pressure[sink_11] 7.5163758784450280e+01
pressure[sink_12] 1.0132499999999998e+00
pressure[sink_13] 7.4161448600980236e+01
pressure[sink_14] 7.4175319671351019e+01
pressure[sink_15] 7.4694143949565515e+01
pressure[sink_16] 74.1421089496326
pressure[sink_17] 5.2943753540353853e+01
pressure[sink_18] 5.0612284224241691e+01
pressure[sink_19] 7.9372932699387121e+01
pressure[sink_20] 5.8536292234827364e+01
pressure[sink_21] 3.0831460506099830e+00
pressure[sink_22] 47.0329474392078
pressure[sink_23] 8.0205393464737369e+01
pressure[sink_24] 3.3286676703366878e+00
pressure[sink_25] 7.4208876434547832e+01
pressure[sink_26] 6.2303948203829329e+01
pressure[sink_27] 8.0425683169921214e+01
pressure[sink_28] 7.6292782207285015e+01
pressure[sink_29] 7.6588064480902190e+01
interdiction[source_1,sink_3] 0
interdiction[innode_1,sink_16] 0
interdiction[innode_6,sink_13] 0
interdiction[sink_13,sink_14] 0
interdiction[sink_14,sink_10] 0
interdiction[sink_25,sink_26] 0
interdiction[sink_26,sink_9] 0
interdiction[sink_9,sink_18] 0
interdiction[sink_26,sink_4] 0
interdiction[sink_4,sink_20] 0
interdiction[sink_18,sink_6] 0
interdiction[sink_25,innode_8] 0
interdiction[sink_6,sink_7] 0
interdiction[sink_6,sink_22] 0
interdiction[sink_7,sink_24] 0
interdiction[sink_22,sink_1] 0
interdiction[sink_24,sink_21] 0
interdiction[sink_21,sink_12] 0
interdiction[sink_7,sink_5] 0
interdiction[sink_5,sink_17] 0
interdiction[sink_17,sink_4] 1
interdiction[sink_17,sink_8] 0
interdiction[sink_3,sink_23] 0
interdiction[sink_8,sink_20] 0
interdiction[sink_25,sink_20] 0
interdiction[sink_25,sink_15] 0
interdiction[sink_15,sink_29] 0
interdiction[sink_29,sink_28] 0
interdiction[sink_29,sink_2] 0
interdiction[sink_2,sink_15] 0
interdiction[sink_29,innode_7] 0
interdiction[innode_4,sink_19] 0
interdiction[sink_19,innode_3] 0
interdiction[innode_4,innode_5] 0
interdiction[sink_27,innode_5] 0
interdiction[sink_27,sink_19] 0
interdiction[sink_10,sink_11] 0
interdiction[sink_10,innode_2] 0
interdiction[sink_10,innode_3] 0
interdiction[innode_6,sink_25] 0
interdiction[sink_11,innode_1] 0
interdiction[sink_19,innode_2] 1
interdiction[source_3,innode_4] 0
interdiction[source_2,innode_7] 0
interdiction[sink_3,innode_8] 0
WCcheckFlow[source_1,sink_3] 39
WCcheckFlow[innode_1,sink_16] 1
WCcheckFlow[innode_6,sink_13] 13
WCcheckFlow[sink_13,sink_14] 12
WCcheckFlow[sink_14,sink_10] 11
WCcheckFlow[sink_25,sink_26] 15
WCcheckFlow[sink_26,sink_9] 12
WCcheckFlow[sink_9,sink_18] 11
WCcheckFlow[sink_26,sink_4] 2
WCcheckFlow[sink_4,sink_20] 1
WCcheckFlow[sink_18,sink_6] 10
WCcheckFlow[sink_25,innode_8] -36
WCcheckFlow[sink_6,sink_7] 7
WCcheckFlow[sink_6,sink_22] 2
WCcheckFlow[sink_7,sink_24] 3
WCcheckFlow[sink_22,sink_1] 1
WCcheckFlow[sink_24,sink_21] 2
WCcheckFlow[sink_21,sink_12] 1
WCcheckFlow[sink_7,sink_5] 3
WCcheckFlow[sink_5,sink_17] 2
WCcheckFlow[sink_17,sink_4] 0
WCcheckFlow[sink_17,sink_8] 1
WCcheckFlow[sink_3,sink_23] 1
WCcheckFlow[sink_8,sink_20] 0
WCcheckFlow[sink_25,sink_20] 0
WCcheckFlow[sink_25,sink_15] 6
WCcheckFlow[sink_15,sink_29] 5
WCcheckFlow[sink_29,sink_28] 1
WCcheckFlow[sink_29,sink_2] 1
WCcheckFlow[sink_2,sink_15] 0
WCcheckFlow[sink_29,innode_7] 2
WCcheckFlow[innode_4,sink_19] -4
WCcheckFlow[sink_19,innode_3] -5
WCcheckFlow[innode_4,innode_5] 2
WCcheckFlow[sink_27,innode_5] -1
WCcheckFlow[sink_27,sink_19] 0
WCcheckFlow[sink_10,sink_11] 3
WCcheckFlow[sink_10,innode_2] 1
WCcheckFlow[sink_10,innode_3] 6
WCcheckFlow[innode_6,sink_25] -14
WCcheckFlow[sink_11,innode_1] 2
WCcheckFlow[sink_19,innode_2] 0
WCcheckFlow[source_3,innode_4] -1
WCcheckFlow[source_2,innode_7] -1
WCcheckFlow[sink_3,innode_8] 37
